treewidth/data/coremark_core_main_main.td
c width = 2, time = 0.016852
s td 625 3 637
b 1 4 6 9
b 2 9 13
b 3 347 369
b 4 369 391 458
b 5 458 491
b 6 491 513 580
b 7 580 602
b 8 602 630
b 9 630 633
b 10 13 27
b 11 27 31
b 12 31 37 64
b 13 67 73
b 14 73 78 92
b 15 141 143
b 16 143 148 151
b 17 182 217
b 18 217 219 270
b 19 270 272
b 20 272 289 293
b 21 377 406
b 22 406 422
b 23 422 427
b 24 427 434
b 25 434 477
b 26 477 482 485
b 27 498 501
b 28 501 506 509
b 29 522 526
b 30 526 530 533
b 31 547 551
b 32 551 554
b 33 554 570
b 34 570 575
b 35 575 577
b 36 577 583
b 37 583 585
b 38 4 9 633
b 39 391 413 458
b 40 513 535 580
b 41 31 64 67
b 42 37 40 62
b 43 37 62 64
b 44 73 92 97
b 45 143 151 170
b 46 219 221 270
b 47 272 293 377
b 48 289 293 300
b 49 477 485 498
b 50 501 509 522
b 51 526 533 547
b 52 73 97 118
b 53 143 170 172
b 54 221 223 270
b 55 289 300 317
b 56 73 118 123
b 57 143 172 182
b 58 223 227 270
b 59 289 317 322
b 60 300 306 317
b 61 73 123 134
b 62 289 322 341
b 63 73 134 141
b 64 289 341 346
b 65 322 328 341
b 66 289 346 364
b 67 346 352 364
b 68 4 633 634
b 69 4 634 635
b 70 4 635 636
b 71 4 636 637
b 72 6 4 5
b 73 9 6 7
b 74 9 7 8
b 75 13 9 10
b 76 13 10 11
b 77 13 11 12
b 78 27 13 15
b 79 27 15 16
b 80 27 16 17
b 81 27 17 18
b 82 27 18 19
b 83 27 19 20
b 84 27 20 21
b 85 27 21 22
b 86 27 22 23
b 87 27 23 24
b 88 27 24 26
b 89 31 27 28
b 90 31 28 29
b 91 31 29 30
b 92 37 31 32
b 93 37 32 33
b 94 37 33 34
b 95 37 34 35
b 96 40 37 38
b 97 40 38 39
b 98 62 40 41
b 99 62 41 42
b 100 62 42 43
b 101 62 43 44
b 102 62 44 45
b 103 62 45 46
b 104 62 46 48
b 105 62 48 49
b 106 62 49 50
b 107 62 50 51
b 108 62 51 52
b 109 62 52 53
b 110 62 53 54
b 111 62 54 55
b 112 62 55 56
b 113 62 56 57
b 114 62 57 59
b 115 62 59 60
b 116 62 60 61
b 117 64 62 63
b 118 67 64 65
b 119 67 65 66
b 120 73 67 68
b 121 73 68 70
b 122 73 70 71
b 123 73 71 72
b 124 78 73 74
b 125 78 74 75
b 126 78 75 76
b 127 78 76 77
b 128 92 78 79
b 129 92 79 81
b 130 92 81 82
b 131 92 82 83
b 132 92 83 84
b 133 92 84 85
b 134 92 85 86
b 135 92 86 87
b 136 92 87 88
b 137 92 88 89
b 138 92 89 90
b 139 97 92 93
b 140 97 93 94
b 141 97 94 95
b 142 97 95 96
b 143 118 97 98
b 144 118 98 99
b 145 118 99 100
b 146 118 100 101
b 147 118 101 103
b 148 118 103 104
b 149 118 104 105
b 150 118 105 106
b 151 118 106 107
b 152 118 107 108
b 153 118 108 109
b 154 118 109 110
b 155 118 110 111
b 156 118 111 112
b 157 118 112 115
b 158 118 115 116
b 159 118 116 117
b 160 123 118 119
b 161 123 119 120
b 162 123 120 121
b 163 123 121 122
b 164 134 123 124
b 165 134 124 126
b 166 134 126 127
b 167 134 127 128
b 168 134 128 129
b 169 134 129 130
b 170 134 130 131
b 171 134 131 132
b 172 134 132 133
b 173 141 134 135
b 174 141 135 137
b 175 141 137 138
b 176 141 138 139
b 177 141 139 140
b 178 143 141 142
b 179 148 143 144
b 180 148 144 145
b 181 148 145 146
b 182 148 151 152
b 183 148 152 153
b 184 148 153 154
b 185 148 154 155
b 186 148 155 156
b 187 148 156 157
b 188 148 157 159
b 189 148 159 160
b 190 148 160 161
b 191 148 161 162
b 192 148 162 163
b 193 148 163 164
b 194 148 164 165
b 195 148 165 166
b 196 151 148 149
b 197 151 149 150
b 198 170 151 167
b 199 170 167 168
b 200 172 170 171
b 201 182 172 173
b 202 182 173 174
b 203 182 174 175
b 204 182 175 176
b 205 182 176 177
b 206 182 177 178
b 207 182 178 179
b 208 182 179 181
b 209 217 182 183
b 210 217 183 184
b 211 217 184 185
b 212 217 185 186
b 213 217 186 187
b 214 217 187 188
b 215 217 188 189
b 216 217 189 190
b 217 217 190 192
b 218 217 192 193
b 219 217 193 194
b 220 217 194 195
b 221 217 195 196
b 222 217 196 197
b 223 217 197 198
b 224 217 198 199
b 225 217 199 200
b 226 217 200 201
b 227 217 201 203
b 228 217 203 204
b 229 217 204 205
b 230 217 205 206
b 231 217 206 207
b 232 217 207 208
b 233 217 208 209
b 234 217 209 210
b 235 217 210 211
b 236 217 211 212
b 237 217 212 214
b 238 217 214 215
b 239 217 215 216
b 240 219 217 218
b 241 221 219 220
b 242 223 221 222
b 243 227 223 226
b 244 270 223 229
b 245 270 229 230
b 246 270 230 231
b 247 270 231 232
b 248 270 232 233
b 249 270 233 234
b 250 270 234 235
b 251 270 221 237
b 252 270 237 238
b 253 270 238 239
b 254 270 239 240
b 255 270 240 241
b 256 270 241 242
b 257 270 242 243
b 258 270 219 244
b 259 270 244 245
b 260 270 245 246
b 261 270 246 248
b 262 270 248 249
b 263 270 249 250
b 264 270 250 251
b 265 270 227 252
b 266 270 252 253
b 267 270 253 254
b 268 270 254 255
b 269 270 255 256
b 270 270 256 257
b 271 270 257 259
b 272 270 217 260
b 273 270 260 261
b 274 270 261 262
b 275 270 262 263
b 276 270 263 264
b 277 270 264 265
b 278 270 265 266
b 279 270 227 228
b 280 270 228 267
b 281 270 267 268
b 282 272 270 271
b 283 289 272 273
b 284 289 273 274
b 285 289 274 275
b 286 289 275 276
b 287 289 276 277
b 288 289 277 278
b 289 289 278 279
b 290 289 279 281
b 291 289 281 282
b 292 289 282 283
b 293 289 283 284
b 294 289 284 285
b 295 289 285 286
b 296 289 286 287
b 297 289 287 288
b 298 289 364 365
b 299 289 365 366
b 300 289 366 367
b 301 289 367 368
b 302 289 368 370
b 303 289 370 371
b 304 289 371 372
b 305 289 372 373
b 306 289 373 374
b 307 289 374 375
b 308 289 375 376
b 309 293 289 290
b 310 293 290 292
b 311 300 293 294
b 312 300 294 295
b 313 300 295 296
b 314 300 296 297
b 315 300 297 298
b 316 300 298 299
b 317 306 300 301
b 318 306 301 303
b 319 306 303 304
b 320 306 304 305
b 321 317 306 307
b 322 317 307 308
b 323 317 308 309
b 324 317 309 310
b 325 317 310 311
b 326 317 311 312
b 327 317 312 314
b 328 317 314 315
b 329 317 315 316
b 330 322 317 318
b 331 322 318 319
b 332 322 319 320
b 333 322 320 321
b 334 328 322 323
b 335 328 323 325
b 336 328 325 326
b 337 328 326 327
b 338 341 328 329
b 339 341 329 330
b 340 341 330 331
b 341 341 331 332
b 342 341 332 333
b 343 341 333 334
b 344 341 334 337
b 345 341 337 338
b 346 341 338 339
b 347 341 339 340
b 348 346 341 342
b 349 346 342 343
b 350 346 343 344
b 351 346 344 345
b 352 347 347 324
b 353 347 324 336
b 354 352 346 348
b 355 352 348 349
b 356 352 349 350
b 357 352 350 351
b 358 364 352 353
b 359 364 353 354
b 360 364 354 355
b 361 364 355 356
b 362 364 356 357
b 363 364 357 359
b 364 364 359 360
b 365 364 360 361
b 366 364 361 362
b 367 364 362 363
b 368 369 347 358
b 369 391 369 380
b 370 406 377 378
b 371 406 378 379
b 372 406 379 381
b 373 406 381 382
b 374 406 382 383
b 375 406 383 384
b 376 406 384 385
b 377 406 385 386
b 378 406 386 387
b 379 406 387 388
b 380 406 388 389
b 381 406 389 390
b 382 406 390 392
b 383 406 392 393
b 384 406 393 394
b 385 406 394 395
b 386 406 395 396
b 387 406 396 397
b 388 406 397 398
b 389 406 398 399
b 390 406 399 400
b 391 406 400 401
b 392 406 401 403
b 393 406 403 404
b 394 406 404 405
b 395 413 391 402
b 396 422 406 407
b 397 422 407 408
b 398 422 408 409
b 399 422 409 410
b 400 422 410 411
b 401 422 411 412
b 402 422 412 414
b 403 422 414 415
b 404 422 415 416
b 405 422 416 417
b 406 422 417 418
b 407 422 418 419
b 408 422 419 420
b 409 422 420 421
b 410 427 422 423
b 411 427 423 425
b 412 427 425 426
b 413 434 427 428
b 414 434 428 429
b 415 434 429 430
b 416 434 430 431
b 417 434 431 432
b 418 434 432 433
b 419 458 413 424
b 420 458 424 435
b 421 458 435 447
b 422 477 434 436
b 423 477 436 437
b 424 477 437 438
b 425 477 438 439
b 426 477 439 440
b 427 477 440 441
b 428 477 441 442
b 429 477 442 443
b 430 477 443 444
b 431 477 444 445
b 432 477 445 448
b 433 477 448 449
b 434 477 449 450
b 435 477 450 451
b 436 477 451 452
b 437 477 452 453
b 438 477 453 454
b 439 477 454 455
b 440 477 455 456
b 441 477 456 457
b 442 477 457 459
b 443 477 459 460
b 444 477 460 461
b 445 477 461 462
b 446 477 462 463
b 447 477 463 464
b 448 477 464 465
b 449 477 465 466
b 450 477 466 467
b 451 477 467 468
b 452 477 468 470
b 453 477 470 471
b 454 477 471 472
b 455 477 472 473
b 456 477 473 474
b 457 477 474 475
b 458 477 475 476
b 459 482 477 478
b 460 482 478 479
b 461 482 479 481
b 462 482 485 486
b 463 482 486 487
b 464 482 487 488
b 465 482 488 489
b 466 482 489 490
b 467 482 490 492
b 468 482 492 493
b 469 482 493 494
b 470 482 494 495
b 471 482 495 496
b 472 482 496 497
b 473 485 482 483
b 474 485 483 484
b 475 491 458 469
b 476 491 469 480
b 477 501 498 499
b 478 501 499 500
b 479 506 501 503
b 480 506 503 504
b 481 506 504 505
b 482 506 509 510
b 483 506 510 511
b 484 506 511 512
b 485 506 512 514
b 486 506 514 515
b 487 506 515 516
b 488 506 516 517
b 489 506 517 518
b 490 506 518 519
b 491 506 519 520
b 492 506 520 521
b 493 509 506 507
b 494 509 507 508
b 495 513 491 502
b 496 526 522 523
b 497 526 523 525
b 498 530 526 527
b 499 530 527 528
b 500 530 528 529
b 501 530 533 534
b 502 530 534 536
b 503 530 536 537
b 504 530 537 538
b 505 530 538 539
b 506 530 539 540
b 507 530 540 541
b 508 530 541 542
b 509 530 542 543
b 510 530 543 544
b 511 530 544 545
b 512 533 530 531
b 513 533 531 532
b 514 535 513 524
b 515 551 547 548
b 516 551 548 549
b 517 551 549 550
b 518 551 554 555
b 519 551 555 556
b 520 551 556 559
b 521 551 559 560
b 522 551 560 561
b 523 551 561 562
b 524 551 562 563
b 525 551 563 564
b 526 551 564 565
b 527 551 565 566
b 528 551 566 567
b 529 554 551 552
b 530 554 552 553
b 531 570 554 568
b 532 575 570 571
b 533 575 571 572
b 534 575 572 573
b 535 575 573 574
b 536 577 575 576
b 537 580 535 546
b 538 580 546 558
b 539 580 558 569
b 540 583 577 578
b 541 583 578 579
b 542 583 579 581
b 543 583 581 582
b 544 585 583 584
b 545 585 585 586
b 546 585 586 587
b 547 585 587 588
b 548 585 588 589
b 549 585 589 590
b 550 602 580 591
b 551 602 591 599
b 552 602 599 600
b 553 602 600 601
b 554 630 602 603
b 555 630 603 604
b 556 630 604 606
b 557 630 606 607
b 558 630 607 608
b 559 630 608 609
b 560 630 609 610
b 561 630 610 611
b 562 630 611 612
b 563 630 612 613
b 564 630 613 614
b 565 630 614 615
b 566 630 615 617
b 567 630 617 618
b 568 630 618 619
b 569 630 619 620
b 570 630 620 621
b 571 630 621 622
b 572 630 622 623
b 573 630 623 624
b 574 630 624 625
b 575 630 625 626
b 576 630 626 628
b 577 630 628 629
b 578 633 630 631
b 579 633 631 632
b 580 324 313
b 581 313 302
b 582 302 291
b 583 291 280
b 584 280 269
b 585 269 258
b 586 258 247
b 587 247 236
b 588 236 225
b 589 225 213
b 590 213 202
b 591 202 191
b 592 191 180
b 593 180 169
b 594 169 158
b 595 158 147
b 596 147 136
b 597 136 125
b 598 125 114
b 599 114 102
b 600 102 91
b 601 91 80
b 602 80 69
b 603 69 58
b 604 58 47
b 605 47 36
b 606 36 25
b 607 25 14
b 608 14 3
b 609 3 627
b 610 627 616
b 611 616 605
b 612 605 557
b 613 557 446
b 614 446 335
b 615 335 224
b 616 224 113
b 617 113 2
b 618 2 1
b 619 590 592
b 620 592 593
b 621 593 594
b 622 594 595
b 623 595 596
b 624 596 597
b 625 597 598
1 2
4 3
5 4
6 5
7 6
8 7
9 8
38 9
2 10
10 11
11 12
41 13
13 14
63 15
15 16
57 17
17 18
18 19
19 20
47 21
21 22
22 23
23 24
24 25
25 26
49 27
27 28
50 29
29 30
51 31
31 32
32 33
33 34
34 35
35 36
36 37
1 38
4 39
6 40
12 41
43 42
12 43
14 44
16 45
18 46
20 47
20 48
26 49
28 50
30 51
44 52
45 53
46 54
48 55
52 56
53 57
54 58
55 59
55 60
56 61
59 62
61 63
62 64
62 65
64 66
66 67
38 68
68 69
69 70
70 71
1 72
1 73
73 74
2 75
75 76
76 77
10 78
78 79
79 80
80 81
81 82
82 83
83 84
84 85
85 86
86 87
87 88
11 89
89 90
90 91
12 92
92 93
93 94
94 95
42 96
96 97
42 98
98 99
99 100
100 101
101 102
102 103
103 104
104 105
105 106
106 107
107 108
108 109
109 110
110 111
111 112
112 113
113 114
114 115
115 116
43 117
41 118
118 119
13 120
120 121
121 122
122 123
14 124
124 125
125 126
126 127
14 128
128 129
129 130
130 131
131 132
132 133
133 134
134 135
135 136
136 137
137 138
44 139
139 140
140 141
141 142
52 143
143 144
144 145
145 146
146 147
147 148
148 149
149 150
150 151
151 152
152 153
153 154
154 155
155 156
156 157
157 158
158 159
56 160
160 161
161 162
162 163
61 164
164 165
165 166
166 167
167 168
168 169
169 170
170 171
171 172
63 173
173 174
174 175
175 176
176 177
15 178
16 179
179 180
180 181
16 182
182 183
183 184
184 185
185 186
186 187
187 188
188 189
189 190
190 191
191 192
192 193
193 194
194 195
16 196
196 197
45 198
198 199
53 200
57 201
201 202
202 203
203 204
204 205
205 206
206 207
207 208
17 209
209 210
210 211
211 212
212 213
213 214
214 215
215 216
216 217
217 218
218 219
219 220
220 221
221 222
222 223
223 224
224 225
225 226
226 227
227 228
228 229
229 230
230 231
231 232
232 233
233 234
234 235
235 236
236 237
237 238
238 239
18 240
46 241
54 242
58 243
54 244
244 245
245 246
246 247
247 248
248 249
249 250
46 251
251 252
252 253
253 254
254 255
255 256
256 257
18 258
258 259
259 260
260 261
261 262
262 263
263 264
58 265
265 266
266 267
267 268
268 269
269 270
270 271
18 272
272 273
273 274
274 275
275 276
276 277
277 278
58 279
279 280
280 281
19 282
20 283
283 284
284 285
285 286
286 287
287 288
288 289
289 290
290 291
291 292
292 293
293 294
294 295
295 296
296 297
66 298
298 299
299 300
300 301
301 302
302 303
303 304
304 305
305 306
306 307
307 308
20 309
309 310
48 311
311 312
312 313
313 314
314 315
315 316
60 317
317 318
318 319
319 320
60 321
321 322
322 323
323 324
324 325
325 326
326 327
327 328
328 329
59 330
330 331
331 332
332 333
65 334
334 335
335 336
336 337
65 338
338 339
339 340
340 341
341 342
342 343
343 344
344 345
345 346
346 347
64 348
348 349
349 350
350 351
3 352
352 353
67 354
354 355
355 356
356 357
67 358
358 359
359 360
360 361
361 362
362 363
363 364
364 365
365 366
366 367
3 368
4 369
21 370
370 371
371 372
372 373
373 374
374 375
375 376
376 377
377 378
378 379
379 380
380 381
381 382
382 383
383 384
384 385
385 386
386 387
387 388
388 389
389 390
390 391
391 392
392 393
393 394
39 395
22 396
396 397
397 398
398 399
399 400
400 401
401 402
402 403
403 404
404 405
405 406
406 407
407 408
408 409
23 410
410 411
411 412
24 413
413 414
414 415
415 416
416 417
417 418
39 419
419 420
420 421
25 422
422 423
423 424
424 425
425 426
426 427
427 428
428 429
429 430
430 431
431 432
432 433
433 434
434 435
435 436
436 437
437 438
438 439
439 440
440 441
441 442
442 443
443 444
444 445
445 446
446 447
447 448
448 449
449 450
450 451
451 452
452 453
453 454
454 455
455 456
456 457
457 458
26 459
459 460
460 461
26 462
462 463
463 464
464 465
465 466
466 467
467 468
468 469
469 470
470 471
471 472
26 473
473 474
5 475
475 476
27 477
477 478
28 479
479 480
480 481
28 482
482 483
483 484
484 485
485 486
486 487
487 488
488 489
489 490
490 491
491 492
28 493
493 494
6 495
29 496
496 497
30 498
498 499
499 500
30 501
501 502
502 503
503 504
504 505
505 506
506 507
507 508
508 509
509 510
510 511
30 512
512 513
40 514
31 515
515 516
516 517
32 518
518 519
519 520
520 521
521 522
522 523
523 524
524 525
525 526
526 527
527 528
32 529
529 530
33 531
34 532
532 533
533 534
534 535
35 536
40 537
537 538
538 539
36 540
540 541
541 542
542 543
37 544
37 545
545 546
546 547
547 548
548 549
7 550
550 551
551 552
552 553
8 554
554 555
555 556
556 557
557 558
558 559
559 560
560 561
561 562
562 563
563 564
564 565
565 566
566 567
567 568
568 569
569 570
570 571
571 572
572 573
573 574
574 575
575 576
576 577
9 578
578 579
352 580
580 581
581 582
582 583
583 584
584 585
585 586
586 587
587 588
588 589
589 590
590 591
591 592
592 593
593 594
594 595
595 596
596 597
597 598
598 599
599 600
600 601
601 602
602 603
603 604
604 605
605 606
606 607
607 608
608 609
609 610
610 611
611 612
612 613
613 614
614 615
615 616
616 617
617 618
549 619
619 620
620 621
621 622
622 623
623 624
624 625
